p cnf 1381 2147
23 85 -87 -90 0
15 -16 28 101 0
28 73 -93 -101 0
-21 24 26 -47 0
4 -9 37 102 0
37 48 -102 103 0
48 -50 -103 104 0
-50 -54 -104 105 0
-54 81 -105 106 0
81 97 99 -106 0
-21 25 -42 55 0
-9 -47 -82 107 0
-9 -47 -82 -107 0
-7 13 -67 108 0
-67 -79 99 -108 0
7 9 62 -98 0
17 30 -50 109 0
-50 -59 -109 110 0
-59 -66 -110 111 0
-66 70 -83 -111 0
-21 -32 -49 112 0
-49 52 -67 -112 0
-10 -42 -92 113 0
-10 -42 -92 -113 0
1 -43 63 114 0
63 -68 71 -114 0
-7 25 -35 115 0
-35 39 -115 116 0
39 42 -116 117 0
42 -44 -117 118 0
-44 -53 -118 119 0
-53 -79 -90 -119 0
28 33 40 120 0
40 -89 94 -120 0
34 72 121 122 0
34 72 121 -122 0
34 72 -121 122 0
34 72 -121 -122 0
-37 47 65 123 0
65 72 73 -123 0
16 24 27 124 0
27 34 -124 125 0
34 -67 -125 126 0
-67 70 -126 127 0
70 -83 -100 -127 0
-4 -21 -23 -62 0
7 -24 -29 128 0
-29 32 -128 129 0
32 46 -129 130 0
46 -57 -130 131 0
-57 79 98 -131 0
15 18 24 132 0
24 -40 -99 -132 0
-2 -31 -57 133 0
-57 72 -97 -133 0
22 -24 57 68 0
10 31 32 134 0
32 73 -87 -134 0
12 27 39 135 0
39 61 70 -135 0
26 -29 71 136 0
26 -29 71 -136 0
-11 -55 -59 137 0
-11 -55 -59 -137 0
-6 63 94 138 0
-6 63 94 -138 0
-2 -5 9 139 0
9 -45 -139 140 0
-45 67 -140 141 0
67 -90 -94 -141 0
8 32 35 142 0
35 38 -142 143 0
38 -41 -143 144 0
-41 -85 -144 145 0
-85 87 -145 146 0
87 -88 98 -146 0
47 -58 -69 147 0
47 -58 -69 -147 0
2 48 66 -71 0
3 7 19 148 0
19 -36 -148 149 0
-36 -75 -149 150 0
-75 80 -150 151 0
80 84 -151 152 0
84 -96 98 -152 0
-20 -39 56 -81 0
49 59 -68 153 0
49 59 -68 -153 0
45 49 -52 -100 0
-16 84 154 155 0
-16 84 154 -155 0
-16 84 -154 155 0
-16 84 -154 -155 0
49 -64 75 156 0
75 81 -156 157 0
81 84 -157 158 0
84 86 -100 -158 0
-23 -28 -35 159 0
-35 -54 -159 160 0
-54 -78 -160 161 0
-78 -83 -96 -161 0
60 65 -68 -81 0
49 -51 -54 162 0
-54 -75 -98 -162 0
6 30 -40 87 0
34 42 163 164 0
34 42 163 -164 0
34 42 -163 164 0
34 42 -163 -164 0
80 81 -96 165 0
80 81 -96 -165 0
48 -57 78 94 0
39 -51 55 166 0
55 57 -166 167 0
57 -60 68 -167 0
-14 49 55 -92 0
16 -40 168 169 0
16 -40 168 -169 0
16 -40 -168 169 0
16 -40 -168 -169 0
-18 -28 39 170 0
39 40 -170 171 0
40 -81 -171 172 0
-81 -85 -89 -172 0
4 -9 19 173 0
19 -40 53 -173 0
36 70 -75 174 0
-75 -92 99 -174 0
9 56 -58 175 0
-58 -63 -175 176 0
-63 67 -176 177 0
67 73 -177 178 0
73 84 93 -178 0
10 27 -45 179 0
-45 -58 -179 180 0
-58 62 -180 181 0
62 74 -181 182 0
74 -77 -182 183 0
-77 83 -89 -183 0
-15 -18 -34 184 0
-15 -18 -34 -184 0
-12 -21 -41 -95 0
11 -12 -22 185 0
-22 -25 -185 186 0
-25 28 -186 187 0
28 -36 -187 188 0
-36 -38 -82 -188 0
10 32 -55 189 0
-55 -59 100 -189 0
-3 -11 -16 190 0
-16 -48 -190 191 0
-48 61 -95 -191 0
-39 -41 65 93 0
-50 -53 -78 91 0
54 -94 98 192 0
54 -94 98 -192 0
-2 -42 67 193 0
67 90 95 -193 0
14 48 -62 194 0
-62 -77 82 -194 0
-7 -37 -49 66 0
28 66 -72 195 0
-72 94 95 -195 0
3 4 -36 196 0
-36 38 -196 197 0
38 -58 -197 198 0
-58 62 -198 199 0
62 -77 -199 200 0
-77 91 -200 201 0
91 94 96 -201 0
-60 80 100 202 0
-60 80 100 -202 0
-34 54 -68 90 0
-45 77 88 203 0
-45 77 88 -203 0
9 -61 -93 96 0
24 -33 36 204 0
36 56 57 -204 0
-30 66 85 205 0
85 87 89 -205 0
83 88 206 207 0
83 88 206 -207 0
83 88 -206 207 0
83 88 -206 -207 0
12 -21 -33 208 0
-33 -61 -208 209 0
-61 -74 -84 -209 0
44 55 210 211 0
44 55 210 -211 0
44 55 -210 211 0
44 55 -210 -211 0
3 13 -43 212 0
-43 49 -85 -212 0
39 58 59 -94 0
-15 -35 46 213 0
46 -51 -213 214 0
-51 -70 -214 215 0
-70 72 -215 216 0
72 77 -83 -216 0
17 80 -82 217 0
17 80 -82 -217 0
-9 -19 62 218 0
62 64 -218 219 0
64 -79 81 -219 0
-5 -20 -87 220 0
-5 -20 -87 -220 0
38 -82 221 222 0
38 -82 221 -222 0
38 -82 -221 222 0
38 -82 -221 -222 0
-64 -77 99 223 0
-64 -77 99 -223 0
-21 23 -24 224 0
-21 23 -24 -224 0
2 40 -41 225 0
-41 -55 -225 226 0
-55 65 -226 227 0
65 -96 -98 -227 0
14 41 50 228 0
50 -62 -66 -228 0
35 -38 -83 229 0
35 -38 -83 -229 0
25 36 47 230 0
47 50 79 -230 0
4 -18 22 231 0
22 -33 -38 -231 0
-3 -20 -25 232 0
-3 -20 -25 -232 0
43 44 -60 233 0
-60 64 -233 234 0
64 66 -234 235 0
66 87 -94 -235 0
-5 -8 35 236 0
35 72 87 -236 0
-7 -16 -53 237 0
-53 -78 -237 238 0
-78 89 90 -238 0
-1 67 70 92 0
-2 -7 67 239 0
67 -88 100 -239 0
53 -59 -71 240 0
-71 -92 -240 241 0
-92 94 -241 242 0
94 95 -242 243 0
95 -97 -243 244 0
-97 99 100 -244 0
-45 66 -87 245 0
-45 66 -87 -245 0
-5 17 28 -46 0
-30 38 39 246 0
39 58 -246 247 0
58 73 -96 -247 0
-9 44 -80 248 0
-9 44 -80 -248 0
-23 28 45 249 0
45 -73 91 -249 0
-1 29 66 83 0
-20 26 48 250 0
48 62 -250 251 0
62 -77 -93 -251 0
77 -81 252 253 0
77 -81 252 -253 0
77 -81 -252 253 0
77 -81 -252 -253 0
3 -42 -49 254 0
3 -42 -49 -254 0
-15 -20 67 255 0
67 81 -92 -255 0
-1 11 37 69 0
50 57 66 256 0
66 68 -256 257 0
68 73 -257 258 0
73 84 -98 -258 0
-4 -13 24 259 0
24 25 -259 260 0
25 32 -260 261 0
32 -42 -261 262 0
-42 -69 -262 263 0
-69 77 86 -263 0
15 -20 31 264 0
31 -48 -264 265 0
-48 53 -73 -265 0
31 35 -64 -96 0
-4 -17 36 266 0
36 -48 -266 267 0
-48 73 -90 -267 0
-19 38 71 268 0
-19 38 71 -268 0
16 26 40 269 0
40 -46 -269 270 0
-46 49 -270 271 0
49 67 -69 -271 0
-5 25 54 272 0
-5 25 54 -272 0
-7 15 -17 -67 0
87 88 -93 273 0
87 88 -93 -273 0
29 71 99 274 0
29 71 99 -274 0
-11 22 275 276 0
-11 22 275 -276 0
-11 22 -275 276 0
-11 22 -275 -276 0
-9 -14 -18 277 0
-18 31 -277 278 0
31 36 -278 279 0
36 -49 -279 280 0
-49 53 -280 281 0
53 -75 79 -281 0
-3 -71 94 282 0
-3 -71 94 -282 0
14 -24 -35 283 0
-35 -72 96 -283 0
13 15 33 284 0
33 69 -284 285 0
69 -72 79 -285 0
38 41 -68 286 0
-68 74 99 -286 0
-24 27 -37 88 0
11 12 43 287 0
11 12 43 -287 0
10 16 31 288 0
31 46 -288 289 0
46 53 -58 -289 0
-10 -70 290 291 0
-10 -70 290 -291 0
-10 -70 -290 291 0
-10 -70 -290 -291 0
2 7 16 292 0
16 -28 -292 293 0
-28 -69 -293 294 0
-69 72 -93 -294 0
-13 -15 24 295 0
24 -30 -295 296 0
-30 -34 -83 -296 0
33 38 -53 297 0
-53 -79 -297 298 0
-79 90 92 -298 0
18 -53 -82 299 0
18 -53 -82 -299 0
7 63 91 300 0
7 63 91 -300 0
-30 -40 -63 301 0
-63 70 -76 -301 0
-6 12 64 -68 0
15 29 30 302 0
30 -65 -302 303 0
-65 96 99 -303 0
-5 -9 37 304 0
37 38 -304 305 0
38 -45 -305 306 0
-45 -50 -56 -306 0
11 -24 31 307 0
31 -32 -307 308 0
-32 -69 -308 309 0
-69 78 -81 -309 0
3 -14 -46 310 0
-46 -52 -310 311 0
-52 -65 -311 312 0
-65 92 94 -312 0
31 38 -39 313 0
-39 77 -87 -313 0
-20 25 -32 314 0
-32 -47 -314 315 0
-47 -51 -315 316 0
-51 -56 -86 -316 0
23 -49 -63 317 0
-63 -67 -317 318 0
-67 -71 -318 319 0
-71 81 -100 -319 0
34 41 -52 320 0
-52 -81 83 -320 0
11 -24 -51 321 0
-51 -54 67 -321 0
-16 63 -68 322 0
-68 75 76 -322 0
20 -30 50 323 0
50 52 -323 324 0
52 65 -324 325 0
65 66 -325 326 0
66 82 -326 327 0
82 86 -92 -327 0
45 58 61 328 0
61 63 -328 329 0
63 -77 -94 -329 0
-34 -57 -63 330 0
-34 -57 -63 -330 0
-3 46 47 331 0
47 -53 -331 332 0
-53 74 -93 -332 0
5 43 69 333 0
69 -82 -92 -333 0
5 -26 34 334 0
34 56 62 -334 0
-17 30 -71 -78 0
62 -75 -98 335 0
62 -75 -98 -335 0
-3 -24 -36 336 0
-36 60 -336 337 0
60 61 -72 -337 0
2 34 -39 338 0
-39 46 -338 339 0
46 73 -339 340 0
73 -74 -340 341 0
-74 -85 -100 -341 0
-11 14 -23 342 0
-23 -26 -342 343 0
-26 -62 -343 344 0
-62 -67 -344 345 0
-67 73 74 -345 0
5 -20 24 82 0
-71 76 346 347 0
-71 76 346 -347 0
-71 76 -346 347 0
-71 76 -346 -347 0
5 58 -80 348 0
-80 89 -348 349 0
89 -90 -93 -349 0
-20 -95 350 351 0
-20 -95 350 -351 0
-20 -95 -350 351 0
-20 -95 -350 -351 0
4 28 -29 352 0
-29 46 -352 353 0
46 47 -353 354 0
47 58 -354 355 0
58 66 -355 356 0
66 -74 -81 -356 0
-42 46 -54 357 0
-54 57 -357 358 0
57 -58 92 -358 0
-3 -15 -58 359 0
-58 74 -359 360 0
74 92 -98 -360 0
77 -99 361 362 0
77 -99 361 -362 0
77 -99 -361 362 0
77 -99 -361 -362 0
39 -52 69 93 0
4 -35 -44 76 0
-48 -50 56 363 0
-48 -50 56 -363 0
12 13 -22 364 0
-22 -45 -364 365 0
-45 -51 86 -365 0
6 23 33 366 0
33 34 -366 367 0
34 -37 -367 368 0
-37 -47 -368 369 0
-47 62 -73 -369 0
-15 18 -24 370 0
-24 27 82 -370 0
-20 36 76 371 0
-20 36 76 -371 0
26 -33 42 372 0
42 -49 -372 373 0
-49 73 82 -373 0
2 -6 -28 374 0
-28 31 -374 375 0
31 37 -375 376 0
37 -44 -376 377 0
-44 -47 -377 378 0
-47 68 -378 379 0
68 -76 -93 -379 0
8 -13 -29 380 0
-29 32 -380 381 0
32 -35 -65 -381 0
-1 -10 21 382 0
21 -22 -382 383 0
-22 -40 -383 384 0
-40 -80 -384 385 0
-80 83 -95 -385 0
28 67 79 386 0
28 67 79 -386 0
32 59 -87 89 0
-22 77 387 388 0
-22 77 387 -388 0
-22 77 -387 388 0
-22 77 -387 -388 0
-15 30 -67 -96 0
-5 -14 34 389 0
34 -48 -389 390 0
-48 -60 -390 391 0
-60 89 -95 -391 0
-28 -42 48 392 0
48 55 -392 393 0
55 82 -86 -393 0
14 -82 90 394 0
14 -82 90 -394 0
-76 89 395 396 0
-76 89 395 -396 0
-76 89 -395 396 0
-76 89 -395 -396 0
-27 43 58 397 0
58 -64 -397 398 0
-64 -74 81 -398 0
6 -7 -29 399 0
-29 53 -399 400 0
53 89 99 -400 0
-19 -30 -35 401 0
-19 -30 -35 -401 0
-13 -68 402 403 0
-13 -68 402 -403 0
-13 -68 -402 403 0
-13 -68 -402 -403 0
9 -22 -37 404 0
9 -22 -37 -404 0
-11 14 -24 405 0
-24 39 57 -405 0
-21 -33 -39 406 0
-39 62 -406 407 0
62 67 -407 408 0
67 83 -408 409 0
83 85 -93 -409 0
24 64 69 84 0
-2 16 -18 -38 0
24 -25 37 82 0
6 8 -30 410 0
-30 33 -410 411 0
33 35 -56 -411 0
13 -18 46 412 0
46 57 -412 413 0
57 -59 -413 414 0
-59 -63 90 -414 0
-30 34 -51 64 0
8 -18 -56 -91 0
-7 -16 22 415 0
22 -76 -88 -415 0
16 18 71 416 0
16 18 71 -416 0
26 39 -59 417 0
-59 -68 -417 418 0
-68 -75 -418 419 0
-75 79 -92 -419 0
-1 -30 -41 420 0
-41 -58 -420 421 0
-58 61 -76 -421 0
-19 -51 422 423 0
-19 -51 422 -423 0
-19 -51 -422 423 0
-19 -51 -422 -423 0
10 -52 72 424 0
72 -77 80 -424 0
3 -16 34 425 0
34 -44 -425 426 0
-44 48 -426 427 0
48 51 -427 428 0
51 -53 -428 429 0
-53 -62 -429 430 0
-62 -88 -99 -430 0
37 42 49 -98 0
43 81 431 432 0
43 81 431 -432 0
43 81 -431 432 0
43 81 -431 -432 0
-9 -46 56 433 0
56 74 -433 434 0
74 81 82 -434 0
25 33 36 435 0
36 43 -435 436 0
43 -76 -436 437 0
-76 79 -92 -437 0
7 -13 -30 438 0
-30 -32 -71 -438 0
16 -33 -38 439 0
-38 41 -439 440 0
41 55 -440 441 0
55 -66 88 -441 0
-6 24 27 442 0
27 33 -49 -442 0
-11 -40 -66 81 0
31 -33 66 77 0
19 40 41 443 0
41 82 -96 -443 0
21 36 48 444 0
48 70 79 -444 0
35 -38 80 445 0
35 -38 80 -445 0
3 -20 -64 -68 0
-3 -15 72 446 0
-3 -15 72 -446 0
7 -11 -14 447 0
-14 18 -447 448 0
18 -54 -448 449 0
-54 76 -99 -449 0
17 41 44 450 0
44 47 -450 451 0
47 -50 -451 452 0
-50 -94 -452 453 0
-94 96 -97 -453 0
56 -67 -78 454 0
56 -67 -78 -454 0
-5 7 11 455 0
11 57 -455 456 0
57 75 -80 -456 0
12 16 28 457 0
28 -45 -457 458 0
-45 -84 -458 459 0
-84 89 93 -459 0
-29 -48 65 -90 0
-9 58 68 -77 0
54 58 -61 460 0
54 58 -61 -460 0
-9 -25 93 461 0
-9 -25 93 -461 0
-5 58 -73 462 0
-73 84 -462 463 0
84 90 -463 464 0
90 93 95 -464 0
-32 -37 -44 465 0
-44 -63 -465 466 0
-63 -87 -92 -466 0
-7 69 74 467 0
74 -77 -90 -467 0
58 -60 -63 -84 0
15 39 -49 96 0
-5 43 51 468 0
-5 43 51 -468 0
3 89 90 469 0
3 89 90 -469 0
57 -66 87 470 0
57 -66 87 -470 0
-1 48 -60 471 0
-60 64 -471 472 0
64 66 -472 473 0
66 -69 77 -473 0
-23 58 64 474 0
-23 58 64 -474 0
25 -49 475 476 0
25 -49 475 -476 0
25 -49 -475 476 0
25 -49 -475 -476 0
-27 -37 48 477 0
48 49 -477 478 0
49 -90 -478 479 0
-90 -94 -98 -479 0
-1 8 13 480 0
13 -18 -480 481 0
-18 28 -481 482 0
28 -49 62 -482 0
2 45 79 -84 0
18 65 -67 483 0
-67 -72 -483 484 0
-72 76 -484 485 0
76 82 93 -485 0
19 36 -54 486 0
-54 -67 -486 487 0
-67 71 -487 488 0
71 83 -488 489 0
83 -86 -489 490 0
-86 92 -98 -490 0
-4 -24 -27 -43 0
-21 -30 -50 491 0
-21 -30 -50 -491 0
9 20 -21 492 0
-21 -31 -492 493 0
-31 -34 -493 494 0
-34 37 -494 495 0
37 -45 -495 496 0
-45 -47 -91 -496 0
-4 19 41 497 0
41 -64 -68 -497 0
2 -12 -20 498 0
-20 -25 -498 499 0
-25 -57 70 -499 0
-48 -50 74 500 0
-48 -50 74 -500 0
-3 7 -59 501 0
-59 -62 -501 502 0
-62 -87 100 -502 0
4 63 503 504 0
4 63 503 -504 0
4 63 -503 504 0
4 63 -503 -504 0
-11 -51 76 99 0
23 57 -71 505 0
-71 -86 91 -505 0
3 4 -16 506 0
-16 -46 -506 507 0
-46 -58 75 -507 0
3 5 37 508 0
37 75 -81 -508 0
9 12 13 509 0
13 -45 -509 510 0
-45 47 -510 511 0
47 -67 -511 512 0
-67 71 -512 513 0
71 -86 100 -513 0
-69 89 514 515 0
-69 89 514 -515 0
-69 89 -514 515 0
-69 89 -514 -515 0
-43 63 -77 99 0
-2 5 -54 516 0
-54 86 97 -516 0
18 -70 517 518 0
18 -70 517 -518 0
18 -70 -517 518 0
18 -70 -517 -518 0
33 -42 45 519 0
45 65 66 -519 0
-39 75 94 520 0
94 96 98 -520 0
92 97 521 522 0
92 97 521 -522 0
92 97 -521 522 0
92 97 -521 -522 0
21 -30 -42 523 0
-42 -70 -523 524 0
-70 -83 -93 -524 0
53 64 525 526 0
53 64 525 -526 0
53 64 -525 526 0
53 64 -525 -526 0
-3 12 22 527 0
22 -52 -527 528 0
-52 58 -94 -528 0
48 67 68 529 0
48 67 68 -529 0
-24 -44 55 530 0
55 -60 -530 531 0
-60 -79 -531 532 0
-79 81 -532 533 0
81 86 -92 -533 0
26 89 -91 534 0
26 89 -91 -534 0
-18 -28 71 535 0
71 73 -535 536 0
73 -88 90 -536 0
-14 -29 -96 537 0
-14 -29 -96 -537 0
8 47 -91 538 0
8 47 -91 -538 0
-73 -86 539 540 0
-73 -86 539 -540 0
-73 -86 -539 540 0
-73 -86 -539 -540 0
-5 -7 -30 541 0
-30 32 -33 -541 0
11 49 -50 542 0
-50 -64 74 -542 0
23 50 59 543 0
59 -71 -75 -543 0
44 -47 -92 544 0
44 -47 -92 -544 0
34 45 56 545 0
56 59 88 -545 0
13 -27 31 546 0
31 -42 -47 -546 0
-3 -12 -29 -34 0
52 53 -69 547 0
-69 73 -547 548 0
73 75 96 -548 0
-14 -17 44 549 0
44 81 96 -549 0
1 -16 -25 550 0
-25 -62 -550 551 0
-62 -87 -551 552 0
-87 98 99 -552 0
9 -10 76 79 0
-1 3 4 553 0
4 -6 -553 554 0
-6 8 -554 555 0
8 9 -555 556 0
9 -11 -556 557 0
-11 -16 -557 558 0
-16 76 -97 -558 0
62 -68 -80 559 0
62 -68 -80 -559 0
-54 75 -96 560 0
-54 75 -96 -560 0
-5 -14 26 561 0
26 37 -55 -561 0
-39 47 48 562 0
48 67 82 -562 0
-18 53 -89 563 0
-18 53 -89 -563 0
-32 37 54 564 0
54 -82 100 -564 0
-2 -10 38 565 0
38 75 92 -565 0
-29 35 57 566 0
57 71 -86 -566 0
86 -90 567 568 0
86 -90 567 -568 0
86 -90 -567 568 0
86 -90 -567 -568 0
-1 12 -51 -58 0
-24 -29 76 90 0
-7 -10 20 569 0
20 46 78 -569 0
59 66 75 570 0
75 77 -570 571 0
77 82 93 -571 0
-13 -22 33 572 0
33 34 -572 573 0
34 41 -573 574 0
41 -51 -574 575 0
-51 -78 -575 576 0
-78 86 95 -576 0
-5 24 -29 577 0
-29 40 -577 578 0
40 -57 -578 579 0
-57 62 -82 -579 0
40 44 -73 580 0
40 44 -73 -580 0
-13 -26 45 581 0
45 -57 -581 582 0
-57 82 -99 -582 0
-28 47 80 583 0
-28 47 80 -583 0
25 35 49 584 0
49 -55 -584 585 0
-55 58 -585 586 0
58 76 -78 -586 0
-14 34 63 587 0
-14 34 63 -587 0
-2 -16 24 588 0
24 -26 -76 -588 0
8 96 97 589 0
8 96 97 -589 0
38 80 590 591 0
38 80 590 -591 0
38 80 -590 591 0
38 80 -590 -591 0
-20 31 592 593 0
-20 31 592 -593 0
-20 31 -592 593 0
-20 31 -592 -593 0
3 -18 -23 594 0
-23 -27 -594 595 0
-27 40 -595 596 0
40 45 -596 597 0
45 -58 -597 598 0
-58 62 -598 599 0
62 -84 88 -599 0
5 -12 -80 600 0
5 -12 -80 -600 0
23 -33 -44 -81 0
22 24 42 601 0
42 78 -601 602 0
78 -81 88 -602 0
8 -39 603 604 0
8 -39 603 -604 0
8 -39 -603 604 0
8 -39 -603 -604 0
47 50 -77 83 0
-33 36 -46 97 0
20 21 52 605 0
20 21 52 -605 0
19 25 40 606 0
40 55 -606 607 0
55 62 -67 -607 0
-2 -19 -79 608 0
-2 -19 -79 -608 0
11 16 25 609 0
25 -37 -609 610 0
-37 -78 81 -610 0
1 -22 -24 611 0
-24 33 -611 612 0
33 -39 -612 613 0
-39 -43 -92 -613 0
42 47 -62 614 0
-62 -88 99 -614 0
27 -62 -91 615 0
27 -62 -91 -615 0
16 72 100 616 0
16 72 100 -616 0
-39 -49 -72 617 0
-72 79 -85 -617 0
5 8 -15 618 0
-15 21 -618 619 0
21 73 -77 -619 0
24 38 39 -74 0
-14 -18 46 620 0
46 47 -620 621 0
47 -54 -621 622 0
-54 -59 -65 -622 0
1 3 20 623 0
20 -33 -623 624 0
-33 40 -624 625 0
40 -41 -625 626 0
-41 -78 -626 627 0
-78 87 -90 -627 0
12 -23 -55 628 0
-55 -61 -74 -628 0
40 47 -48 629 0
-48 86 -96 -629 0
-9 -29 34 630 0
34 -41 -630 631 0
-41 -56 -631 632 0
-56 -60 -632 633 0
-60 -65 -95 -633 0
32 -58 -72 634 0
-72 -76 -634 635 0
-76 -80 90 -635 0
43 50 -61 636 0
-61 -90 92 -636 0
20 -33 -60 637 0
-60 -63 76 -637 0
-1 -25 72 638 0
72 -77 -638 639 0
-77 84 85 -639 0
-3 29 -39 640 0
-39 59 -640 641 0
59 61 -641 642 0
61 74 -642 643 0
74 75 -643 644 0
75 91 95 -644 0
54 67 70 645 0
70 72 -86 -645 0
-2 -43 -66 -72 0
-1 -12 55 646 0
55 56 -646 647 0
56 -62 83 -647 0
14 52 78 -91 0
14 -35 43 648 0
43 65 71 -648 0
-7 -26 39 649 0
39 -80 -87 -649 0
71 -84 650 651 0
71 -84 650 -651 0
71 -84 -650 651 0
71 -84 -650 -651 0
-9 -12 -33 652 0
-33 -45 -652 653 0
-45 69 -653 654 0
69 70 -81 -654 0
11 43 -48 655 0
-48 55 -655 656 0
55 82 -656 657 0
82 -83 -94 -657 0
-20 23 -32 658 0
-32 -35 -658 659 0
-35 -71 -659 660 0
-71 -76 -660 661 0
-76 82 83 -661 0
14 -29 33 91 0
-2 -80 85 662 0
-2 -80 85 -662 0
-4 14 67 663 0
67 -89 -663 664 0
-89 98 -99 -664 0
1 13 37 665 0
37 -38 -665 666 0
-38 55 -666 667 0
55 56 -667 668 0
56 67 -668 669 0
67 75 -669 670 0
75 -83 -90 -670 0
1 -7 -51 671 0
-51 55 -671 672 0
55 -63 -672 673 0
-63 66 -67 -673 0
-8 -12 -24 674 0
-24 -67 83 -674 0
2 86 675 676 0
2 86 675 -676 0
2 86 -675 676 0
2 86 -675 -676 0
48 -61 78 677 0
48 -61 78 -677 0
13 -44 -53 85 0
-57 -59 65 678 0
-57 -59 65 -678 0
21 22 -31 679 0
-31 -54 -679 680 0
-54 -60 95 -680 0
15 32 42 681 0
42 43 -681 682 0
43 -46 -682 683 0
-46 -56 -683 684 0
-56 71 -82 -684 0
-24 27 -33 685 0
-33 36 91 -685 0
-29 45 85 686 0
-29 45 85 -686 0
35 -42 51 687 0
51 -58 -687 688 0
-58 82 91 -688 0
-2 20 689 690 0
-2 20 689 -690 0
-2 20 -689 690 0
-2 20 -689 -690 0
11 -15 -37 691 0
-37 40 -691 692 0
40 46 -692 693 0
46 -53 -693 694 0
-53 -56 -694 695 0
-56 77 -85 -695 0
-4 17 -22 696 0
-22 -38 -696 697 0
-38 41 -697 698 0
41 -44 -74 -698 0
-10 -19 30 699 0
30 -31 -699 700 0
-31 -49 -700 701 0
-49 -89 92 -701 0
37 76 88 702 0
37 76 88 -702 0
41 68 -96 98 0
-5 -31 86 703 0
-5 -31 86 -703 0
-24 39 -76 704 0
-24 39 -76 -704 0
-4 -46 705 706 0
-4 -46 705 -706 0
-4 -46 -705 706 0
-4 -46 -705 -706 0
-14 -23 43 707 0
43 -57 -707 708 0
-57 -69 98 -708 0
-37 -51 57 709 0
57 64 -709 710 0
64 91 -95 -710 0
23 -91 99 711 0
23 -91 99 -711 0
-85 98 712 713 0
-85 98 712 -713 0
-85 98 -712 713 0
-85 98 -712 -713 0
8 -36 52 714 0
52 67 -714 715 0
67 -73 -715 716 0
-73 -83 90 -716 0
15 -16 -38 717 0
-38 62 98 -717 0
-28 -39 -44 718 0
-28 -39 -44 -718 0
-22 -77 719 720 0
-22 -77 719 -720 0
-22 -77 -719 720 0
-22 -77 -719 -720 0
18 -31 -46 721 0
18 -31 -46 -721 0
-2 -20 23 722 0
23 -33 -722 723 0
-33 48 66 -723 0
-30 -42 -48 724 0
-48 71 -724 725 0
71 76 -725 726 0
76 92 94 -726 0
33 73 78 93 0
-11 25 -27 -47 0
33 -34 46 91 0
15 17 -39 727 0
-39 42 -727 728 0
42 44 -65 -728 0
22 -27 55 729 0
55 66 -729 730 0
66 -68 -730 731 0
-68 -72 99 -731 0
-39 43 -60 73 0
17 -27 -65 -100 0
-16 -25 31 732 0
31 -85 -97 -732 0
-1 25 27 80 0
35 48 -68 733 0
-68 -77 -733 734 0
-77 -84 88 -734 0
-10 -39 -50 735 0
-50 -67 -735 736 0
-67 70 -85 -736 0
-28 -60 737 738 0
-28 -60 737 -738 0
-28 -60 -737 738 0
-28 -60 -737 -738 0
-8 19 -61 739 0
-61 81 -739 740 0
81 -86 89 -740 0
-7 12 -25 741 0
-25 43 -741 742 0
43 -53 -742 743 0
-53 57 -743 744 0
57 60 -744 745 0
60 -62 -745 746 0
-62 -71 -97 -746 0
46 51 58 747 0
46 51 58 -747 0
52 90 748 749 0
52 90 748 -749 0
52 90 -748 749 0
52 90 -748 -749 0
-1 -18 -55 750 0
-55 65 -750 751 0
65 83 -751 752 0
83 90 91 -752 0
34 42 45 753 0
45 52 -753 754 0
52 -85 88 -754 0
16 -22 -39 755 0
-39 -41 -80 -755 0
25 -42 -47 756 0
-47 50 -756 757 0
50 64 -757 758 0
64 -75 97 -758 0
-15 33 36 759 0
36 42 -58 -759 0
-20 -49 -75 90 0
-5 40 -42 760 0
-42 75 86 -760 0
28 49 50 91 0
30 45 57 761 0
57 79 88 -761 0
44 -47 89 762 0
44 -47 89 -762 0
12 -29 -73 -77 0
-8 -12 -24 81 0
-3 5 -6 763 0
-6 16 -763 764 0
16 -20 -764 765 0
-20 -23 -765 766 0
-23 27 -766 767 0
27 -63 85 -767 0
26 50 53 768 0
53 56 -59 -768 0
65 -76 -87 769 0
65 -76 -87 -769 0
2 -14 16 770 0
16 20 -770 771 0
20 66 -771 772 0
66 84 -89 -772 0
21 25 37 773 0
37 -54 -773 774 0
-54 -93 98 -774 0
-38 -57 74 -99 0
-18 67 77 -86 0
2 63 67 -70 0
2 4 -18 -34 0
-1 -14 67 775 0
67 -82 -775 776 0
-82 93 99 -776 0
-41 -46 -53 777 0
-53 -72 -96 -777 0
-16 78 83 778 0
83 -86 -99 -778 0
5 67 -69 779 0
-69 -72 -93 -779 0
24 48 -58 780 0
24 48 -58 -780 0
-14 52 60 781 0
-14 52 60 -781 0
12 98 99 782 0
12 98 99 -782 0
66 -75 96 783 0
66 -75 96 -783 0
-10 57 -69 784 0
-69 73 -784 785 0
73 75 -785 786 0
75 -78 86 -786 0
-32 67 73 787 0
-32 67 73 -787 0
-3 -7 34 -58 0
-36 -46 57 788 0
57 58 -99 -788 0
-10 17 22 789 0
22 -27 -789 790 0
-27 37 -790 791 0
37 -58 71 -791 0
2 11 54 792 0
54 88 -93 -792 0
1 -7 27 793 0
27 74 -793 794 0
74 -76 -794 795 0
-76 -81 -795 796 0
-81 85 91 -796 0
28 45 -63 797 0
-63 -76 -797 798 0
-76 80 -798 799 0
80 92 -95 -799 0
-13 -33 -36 -52 0
-30 -39 -59 800 0
-30 -39 -59 -800 0
18 29 -30 801 0
-30 -40 -801 802 0
-40 -43 -802 803 0
-43 46 -803 804 0
46 -54 -804 805 0
-54 -56 -100 -805 0
-13 28 50 806 0
50 -73 -77 -806 0
11 -21 -29 807 0
-29 -34 -807 808 0
-34 -66 79 -808 0
-4 -57 -59 83 0
-12 16 -68 809 0
-68 -71 -96 -809 0
8 13 72 810 0
8 13 72 -810 0
-20 -60 85 811 0
-20 -60 85 -811 0
32 66 -80 812 0
-80 -95 100 -812 0
12 13 -25 813 0
-25 -55 -813 814 0
-55 -67 84 -814 0
9 12 14 815 0
14 46 -815 816 0
46 84 -90 -816 0
18 21 22 817 0
22 -54 -817 818 0
-54 56 -818 819 0
56 -76 -819 820 0
-76 80 -95 -820 0
8 -78 98 821 0
8 -78 98 -821 0
6 -52 72 -86 0
-11 14 -63 95 0
27 -79 822 823 0
27 -79 822 -823 0
27 -79 -822 823 0
27 -79 -822 -823 0
3 5 7 824 0
7 42 -824 825 0
42 -51 -825 826 0
-51 54 -826 827 0
54 74 75 -827 0
1 6 -48 84 0
30 -39 -51 828 0
-51 -79 -92 -828 0
-3 62 73 829 0
-3 62 73 -829 0
-12 21 31 830 0
31 -61 67 -830 0
-1 57 76 77 0
-33 -53 64 831 0
64 -69 -831 832 0
-69 -88 -832 833 0
-88 90 95 -833 0
35 98 -100 834 0
35 98 -100 -834 0
-5 -27 -37 835 0
-37 80 -835 836 0
80 82 -836 837 0
82 -97 99 -837 0
-23 -38 838 839 0
-23 -38 838 -839 0
-23 -38 -838 839 0
-23 -38 -838 -839 0
17 56 -100 840 0
17 56 -100 -840 0
-82 -95 841 842 0
-82 -95 841 -842 0
-82 -95 -841 842 0
-82 -95 -841 -842 0
-14 -16 -39 843 0
-39 41 -42 -843 0
20 58 -59 844 0
-59 -73 83 -844 0
-1 32 59 845 0
59 68 -845 846 0
68 -80 -84 -846 0
53 -56 847 848 0
53 -56 847 -848 0
53 -56 -847 848 0
53 -56 -847 -848 0
43 54 65 849 0
65 68 97 -849 0
22 -36 40 850 0
40 -51 -56 -850 0
5 -12 -21 851 0
-21 -38 -43 -851 0
5 61 62 852 0
62 -78 -852 853 0
-78 82 84 -853 0
7 8 -23 854 0
-23 -26 -854 855 0
-26 53 90 -855 0
10 -25 -34 856 0
-34 -71 -96 -856 0
-6 18 -19 857 0
-19 85 88 -857 0
-10 12 13 858 0
13 -15 -858 859 0
-15 17 -859 860 0
17 18 -860 861 0
18 -20 -861 862 0
-20 -25 85 -862 0
-5 71 -77 -89 0
-63 84 863 864 0
-63 84 863 -864 0
-63 84 -863 864 0
-63 84 -863 -864 0
-14 -23 35 865 0
35 46 -64 -865 0
-48 56 57 866 0
57 76 91 -866 0
9 -27 62 -98 0
1 -41 46 867 0
46 63 -91 -867 0
-11 -19 47 84 0
-38 44 66 868 0
66 80 -95 -868 0
95 -99 869 870 0
95 -99 869 -870 0
95 -99 -869 870 0
95 -99 -869 -870 0
-10 21 -60 -67 0
-33 -38 85 99 0
2 -16 -19 871 0
-19 29 -871 872 0
29 55 87 -872 0
4 68 75 873 0
75 84 -873 874 0
84 86 91 -874 0
-22 -31 42 875 0
42 43 -875 876 0
43 50 -876 877 0
50 -60 -877 878 0
-60 -87 95 -878 0
-14 33 -38 879 0
-38 49 -879 880 0
49 -66 -880 881 0
-66 71 -91 -881 0
-8 49 53 -82 0
-22 -35 54 882 0
54 -66 91 -882 0
-37 56 89 883 0
-37 56 89 -883 0
34 44 58 884 0
58 -64 -884 885 0
-64 67 -885 886 0
67 85 -87 -886 0
-23 43 72 887 0
-23 43 72 -887 0
5 6 -11 888 0
-11 -25 -888 889 0
-25 33 -889 890 0
33 -35 -85 -890 0
47 89 891 892 0
47 89 891 -892 0
47 89 -891 892 0
47 89 -891 -892 0
-29 40 893 894 0
-29 40 893 -894 0
-29 40 -893 894 0
-29 40 -893 -894 0
12 -27 -32 895 0
-32 -36 -895 896 0
-36 49 -896 897 0
49 54 -897 898 0
54 -67 -898 899 0
-67 71 -899 900 0
71 -93 97 -900 0
14 -21 -89 901 0
14 -21 -89 -901 0
32 -42 -53 -90 0
31 33 51 902 0
51 87 -902 903 0
87 -90 97 -903 0
17 -48 904 905 0
17 -48 904 -905 0
17 -48 -904 905 0
17 -48 -904 -905 0
6 56 59 906 0
59 -86 92 -906 0
-42 45 -55 907 0
-42 45 -55 -907 0
29 30 61 908 0
29 30 61 -908 0
28 34 49 909 0
49 64 -909 910 0
64 71 -76 -910 0
-11 -28 -88 911 0
-11 -28 -88 -911 0
-1 20 25 912 0
25 34 -912 913 0
34 -46 -913 914 0
-46 -87 90 -914 0
8 10 -31 915 0
-31 -33 -915 916 0
-33 42 -916 917 0
42 -48 -52 -917 0
51 56 -71 -97 0
9 36 -71 -100 0
25 81 918 919 0
25 81 918 -919 0
25 81 -918 919 0
25 81 -918 -919 0
-48 -58 -81 920 0
-81 88 -94 -920 0
14 17 -24 921 0
-24 30 -921 922 0
30 82 -86 -922 0
33 47 48 -83 0
-23 -27 55 923 0
55 56 -923 924 0
56 -63 -924 925 0
-63 -68 -74 -925 0
10 12 29 926 0
29 -42 -926 927 0
-42 49 -927 928 0
49 -50 -928 929 0
-50 -87 -929 930 0
-87 96 -99 -930 0
-5 21 -32 931 0
-32 -64 -931 932 0
-64 -70 -83 -932 0
-4 49 56 933 0
56 -57 95 -933 0
-18 -38 43 934 0
43 -50 -934 935 0
-50 -65 -935 936 0
-65 -69 -74 -936 0
1 41 -67 937 0
-67 -81 -937 938 0
-81 -85 -938 939 0
-85 -89 99 -939 0
52 59 -70 -99 0
29 -42 -69 940 0
-69 -72 85 -940 0
4 -10 -34 941 0
-34 81 -941 942 0
81 -86 -942 943 0
-86 93 94 -943 0
-12 38 -48 944 0
-48 68 -944 945 0
68 70 -945 946 0
70 83 -946 947 0
83 84 100 -947 0
63 76 79 948 0
79 81 -95 -948 0
-11 -52 -75 -81 0
-10 -21 64 949 0
64 65 -949 950 0
65 -71 92 -950 0
23 61 87 -100 0
23 -44 52 951 0
52 74 80 -951 0
-16 -35 48 952 0
48 -89 -96 -952 0
80 -93 953 954 0
80 -93 953 -954 0
80 -93 -953 954 0
80 -93 -953 -954 0
-3 -18 -21 955 0
-21 -42 -955 956 0
-42 -54 -956 957 0
-54 78 -957 958 0
78 79 -90 -958 0
20 52 -57 959 0
-57 64 -959 960 0
64 91 -92 -960 0
-29 32 -41 961 0
-41 -44 -961 962 0
-44 -80 -962 963 0
-80 -85 -963 964 0
-85 91 92 -964 0
23 -38 42 100 0
7 -8 -11 965 0
-11 -89 94 -965 0
-13 23 76 -98 0
10 22 46 966 0
46 -47 -966 967 0
-47 64 -967 968 0
64 65 -968 969 0
65 76 -969 970 0
76 84 -970 971 0
84 -92 -99 -971 0
10 -16 -60 972 0
-60 64 -972 973 0
64 -72 -973 974 0
-72 75 -76 -974 0
-17 -21 -33 975 0
-33 -76 92 -975 0
11 95 976 977 0
11 95 976 -977 0
11 95 -976 977 0
11 95 -976 -977 0
57 -70 87 978 0
57 -70 87 -978 0
22 -53 -62 94 0
4 -66 -68 74 0
30 31 -40 979 0
-40 -63 -69 -979 0
24 41 51 980 0
51 52 -980 981 0
52 -55 -981 982 0
-55 -65 -982 983 0
-65 80 -91 -983 0
-33 36 -42 984 0
-42 45 100 -984 0
-38 54 94 985 0
-38 54 94 -985 0
44 -51 60 986 0
60 -67 -986 987 0
-67 91 100 -987 0
-11 29 988 989 0
-11 29 988 -989 0
-11 29 -988 989 0
-11 29 -988 -989 0
20 -24 -46 990 0
-46 49 -990 991 0
49 55 -991 992 0
55 -62 -992 993 0
-62 -65 -993 994 0
-65 86 -94 -994 0
1 -13 26 995 0
26 -31 -995 996 0
-31 -47 -996 997 0
-47 50 -997 998 0
50 -53 -83 -998 0
-19 -28 39 999 0
39 -40 -999 1000 0
-40 -58 -98 -1000 0
-5 7 46 1001 0
46 85 97 -1001 0
50 77 1002 1003 0
50 77 1002 -1003 0
50 77 -1002 1003 0
50 77 -1002 -1003 0
-14 -40 95 1004 0
-14 -40 95 -1004 0
-33 48 -85 1005 0
-33 48 -85 -1005 0
7 -13 -55 1006 0
7 -13 -55 -1006 0
-4 -23 -32 1007 0
-32 52 -1007 1008 0
52 -66 -78 -1008 0
8 -46 -60 1009 0
-60 66 -1009 1010 0
66 73 100 -1010 0
7 32 -100 1011 0
7 32 -100 -1011 0
7 17 -45 1012 0
-45 61 -1012 1013 0
61 76 -1013 1014 0
76 -82 -1014 1015 0
-82 -92 99 -1015 0
24 -25 -47 71 0
-37 -48 -53 1016 0
-37 -48 -53 -1016 0
-31 -86 1017 1018 0
-31 -86 1017 -1018 0
-31 -86 -1017 1018 0
-31 -86 -1017 -1018 0
27 -40 -55 1019 0
27 -40 -55 -1019 0
1 3 -11 1020 0
-11 -29 -1020 1021 0
-29 32 -1021 1022 0
32 -42 -1022 1023 0
-42 57 75 -1023 0
2 -39 -51 1024 0
-51 -57 -1024 1025 0
-57 80 85 -1025 0
42 82 87 1026 0
42 82 87 -1026 0
-20 34 -36 -56 0
42 -43 55 100 0
8 24 26 1027 0
26 -48 -1027 1028 0
-48 51 -1028 1029 0
51 53 -74 -1029 0
31 -36 64 1030 0
64 75 -1030 1031 0
75 -77 -81 -1031 0
-9 -48 52 1032 0
52 -69 82 -1032 0
-6 26 -36 -74 0
-25 -34 40 -94 0
-10 34 36 89 0
44 57 -77 1033 0
-77 -86 -1033 1034 0
-86 -93 97 -1034 0
-19 -48 -59 1035 0
-59 -76 -1035 1036 0
-76 79 -94 -1036 0
-37 -69 1037 1038 0
-37 -69 1037 -1038 0
-37 -69 -1037 1038 0
-37 -69 -1037 -1038 0
-6 -17 28 1039 0
28 -70 -1039 1040 0
-70 90 -1040 1041 0
90 -95 98 -1041 0
-16 21 -34 1042 0
-34 52 -1042 1043 0
52 -62 -1043 1044 0
-62 66 -1044 1045 0
66 69 -1045 1046 0
69 -71 -80 -1046 0
55 60 67 1047 0
55 60 67 -1047 0
61 99 1048 1049 0
61 99 1048 -1049 0
61 99 -1048 1049 0
61 99 -1048 -1049 0
-10 -27 -64 1050 0
-64 74 -1050 1051 0
74 92 -1051 1052 0
92 99 100 -1052 0
43 51 54 1053 0
54 61 -1053 1054 0
61 -94 97 -1054 0
6 25 -31 1055 0
-31 -48 -1055 1056 0
-48 -50 -89 -1056 0
34 -51 -56 1057 0
-56 59 -1057 1058 0
59 73 -84 -1058 0
-24 42 45 1059 0
45 51 -67 -1059 0
-29 -58 -84 99 0
-14 49 -51 1060 0
-51 84 95 -1060 0
37 58 59 100 0
39 54 66 1061 0
66 88 97 -1061 0
53 -56 98 1062 0
53 -56 98 -1062 0
21 -38 -82 -86 0
-17 -21 -33 90 0
-12 14 -15 1063 0
-15 25 -1063 1064 0
25 -29 -1064 1065 0
-29 -32 -1065 1066 0
-32 36 -1066 1067 0
36 -72 94 -1067 0
35 59 62 1068 0
62 65 -68 -1068 0
74 -85 -96 1069 0
74 -85 -96 -1069 0
-2 7 11 1070 0
11 -23 -1070 1071 0
-23 25 -1071 1072 0
25 29 -1072 1073 0
29 75 -1073 1074 0
75 93 -98 -1074 0
-8 30 34 1075 0
34 46 -63 -1075 0
-47 -66 83 1076 0
-47 -66 83 -1076 0
-27 76 86 -95 0
11 72 76 -79 0
2 8 11 1077 0
11 13 -1077 1078 0
13 -27 -43 -1078 0
-5 -10 -23 1079 0
-23 76 -91 -1079 0
-8 -50 -55 1080 0
-55 -62 -81 -1080 0
-2 -25 87 1081 0
87 92 -95 -1081 0
14 76 -78 -81 0
33 57 -67 1082 0
33 57 -67 -1082 0
7 8 -23 1083 0
-23 61 69 -1083 0
5 21 1084 1085 0
5 21 1084 -1085 0
5 21 -1084 1085 0
5 21 -1084 -1085 0
75 -84 1086 1087 0
75 -84 1086 -1087 0
75 -84 -1086 1087 0
75 -84 -1086 -1087 0
-19 66 -78 1088 0
-78 82 -1088 1089 0
82 84 -1089 1090 0
84 -87 95 -1090 0
-41 76 82 1091 0
-41 76 82 -1091 0
-8 -12 -16 1092 0
-16 43 -67 -1092 0
-45 -55 66 67 0
-2 -19 26 1093 0
26 31 -1093 1094 0
31 -36 -1094 1095 0
-36 46 -1095 1096 0
46 -67 80 -1096 0
11 20 63 97 0
1 -4 10 1097 0
10 -16 -1097 1098 0
-16 36 -1098 1099 0
36 83 -1099 1100 0
83 -85 -1100 1101 0
-85 -90 -1101 1102 0
-90 94 100 -1102 0
37 54 -72 1103 0
-72 -85 89 -1103 0
-22 -42 -45 -61 0
-9 -39 -48 -68 0
27 38 -39 1104 0
-39 -49 -1104 1105 0
-49 -52 -1105 1106 0
-52 55 -1106 1107 0
55 -63 -65 -1107 0
-22 37 59 1108 0
59 -82 -86 -1108 0
20 -30 -38 1109 0
-38 -43 -1109 1110 0
-43 -75 88 -1110 0
-13 -66 -68 92 0
-5 18 1111 1112 0
-5 18 1111 -1112 0
-5 18 -1111 1112 0
-5 18 -1111 -1112 0
-21 25 -77 -80 0
17 22 81 1113 0
17 22 81 -1113 0
-29 -69 94 1114 0
-29 -69 94 -1114 0
-4 9 75 1115 0
-4 9 75 -1115 0
41 75 -89 1116 0
41 75 -89 -1116 0
21 22 -34 1117 0
-34 -64 -1117 1118 0
-64 -76 93 -1118 0
-4 18 21 1119 0
21 23 -1119 1120 0
23 55 -1120 1121 0
55 93 -99 -1121 0
7 27 30 1122 0
30 31 -1122 1123 0
31 -63 -1123 1124 0
-63 65 -1124 1125 0
65 -85 89 -1125 0
17 -87 1126 1127 0
17 -87 1126 -1127 0
17 -87 -1126 1127 0
17 -87 -1126 -1127 0
4 15 -61 1128 0
-61 81 -95 -1128 0
-20 23 -72 1129 0
-20 23 -72 -1129 0
36 -88 1130 1131 0
36 -88 1130 -1131 0
36 -88 -1130 1131 0
36 -88 -1130 -1131 0
12 14 16 1132 0
16 51 -1132 1133 0
51 -60 -1133 1134 0
-60 63 -1134 1135 0
63 83 84 -1135 0
10 15 -57 93 0
-1 -11 1136 1137 0
-1 -11 1136 -1137 0
-1 -11 -1136 1137 0
-1 -11 -1136 -1137 0
39 -48 -60 -88 0
-12 71 82 1138 0
-12 71 82 -1138 0
-21 30 40 1139 0
40 -70 76 -1139 0
4 -10 66 1140 0
66 85 86 -1140 0
7 -9 -42 1141 0
-42 -62 -1141 1142 0
-62 73 -1142 1143 0
73 -78 -1143 1144 0
-78 -97 99 -1144 0
-6 8 44 1145 0
-6 8 44 -1145 0
-14 -36 -46 1146 0
-46 89 91 -1146 0
-9 -32 -47 1147 0
-9 -32 -47 -1147 0
-4 26 65 1148 0
-4 26 65 -1148 0
-23 -25 -48 1149 0
-48 50 -51 -1149 0
29 67 -68 1150 0
-68 -82 92 -1150 0
-10 41 68 1151 0
68 77 -1151 1152 0
77 -89 -93 -1152 0
6 62 -65 1153 0
6 62 -65 -1153 0
52 63 74 77 0
31 -45 49 1154 0
49 -60 -65 -1154 0
14 -21 -30 1155 0
-30 -47 -52 -1155 0
14 70 71 1156 0
71 -87 -1156 1157 0
-87 91 93 -1157 0
-5 16 17 1158 0
17 -32 -1158 1159 0
-32 -35 -1159 1160 0
-35 62 99 -1160 0
19 -34 -43 -80 0
-15 27 -28 1161 0
-28 94 97 -1161 0
-19 21 22 1162 0
22 -24 -1162 1163 0
-24 26 -1163 1164 0
26 27 -1164 1165 0
27 -29 -1165 1166 0
-29 -34 94 -1166 0
-14 80 -86 -98 0
-72 93 1167 1168 0
-72 93 1167 -1168 0
-72 93 -1167 1168 0
-72 93 -1167 -1168 0
-23 -32 44 1169 0
44 55 -73 -1169 0
-7 -57 65 1170 0
65 66 -1170 1171 0
66 85 100 -1171 0
18 -36 71 1172 0
18 -36 71 -1172 0
10 -50 55 1173 0
55 72 -100 -1173 0
-4 -20 -28 1174 0
-28 56 93 -1174 0
4 -8 -47 1175 0
-47 53 -1175 1176 0
53 75 89 -1176 0
8 -19 30 1177 0
30 -69 -76 -1177 0
-42 -47 94 1178 0
-42 -47 94 -1178 0
11 -25 -28 1179 0
-28 38 -1179 1180 0
38 64 96 -1180 0
4 13 77 1181 0
77 84 -1181 1182 0
84 93 -1182 1183 0
93 95 100 -1183 0
-31 -40 51 1184 0
51 52 -1184 1185 0
52 59 -1185 1186 0
59 -69 -96 -1186 0
-23 42 -47 1187 0
-47 58 -1187 1188 0
58 -75 -1188 1189 0
-75 80 -100 -1189 0
-17 58 62 -91 0
-31 -44 63 1190 0
63 -75 100 -1190 0
-46 65 98 1191 0
-46 65 98 -1191 0
43 53 67 1192 0
67 -73 -1192 1193 0
-73 76 -1193 1194 0
76 94 -96 -1194 0
-32 52 81 1195 0
-32 52 81 -1195 0
14 15 -20 1196 0
-20 -34 -1196 1197 0
-34 42 -1197 1198 0
42 -44 -94 -1198 0
56 98 1199 1200 0
56 98 1199 -1200 0
56 98 -1199 1200 0
56 98 -1199 -1200 0
-2 6 -38 49 0
21 -36 -41 1201 0
-41 -45 -1201 1202 0
-45 58 -1202 1203 0
58 63 -1203 1204 0
63 -76 80 -1204 0
23 -30 -98 1205 0
23 -30 -98 -1205 0
6 41 -51 1206 0
-51 -62 -99 -1206 0
40 42 60 1207 0
60 96 -99 -1207 0
1 26 -57 1208 0
1 26 -57 -1208 0
15 65 68 -95 0
-51 54 -64 1209 0
-51 54 -64 -1209 0
38 39 70 1210 0
38 39 70 -1210 0
37 43 58 1211 0
58 73 -1211 1212 0
73 80 -85 -1212 0
-20 -37 -97 1213 0
-20 -37 -97 -1213 0
-10 29 34 1214 0
34 43 -1214 1215 0
43 -55 -1215 1216 0
-55 -96 99 -1216 0
-6 17 19 1217 0
19 -40 -1217 1218 0
-40 -42 -1218 1219 0
-42 51 -1219 1220 0
51 -57 -61 -1220 0
-9 60 65 -80 0
18 45 -80 1221 0
18 45 -80 -1221 0
-3 34 90 1222 0
-3 34 90 -1222 0
-57 -67 -90 97 0
23 26 -33 1223 0
-33 39 -1223 1224 0
39 91 -95 -1224 0
42 56 57 -92 0
5 -8 -32 1225 0
-32 -36 -1225 1226 0
-36 64 -1226 1227 0
64 65 -1227 1228 0
65 -72 -1228 1229 0
-72 -77 -83 -1229 0
19 21 38 1230 0
38 -51 -1230 1231 0
-51 58 -1231 1232 0
58 -59 -96 -1232 0
4 -14 30 1233 0
30 -41 -1233 1234 0
-41 -73 -1234 1235 0
-73 -79 -92 -1235 0
-13 58 65 -66 0
8 -27 -47 1236 0
-47 52 -1236 1237 0
52 -59 -1237 1238 0
-59 -74 -1238 1239 0
-74 -78 -83 -1239 0
-8 10 50 1240 0
50 -76 -1240 1241 0
-76 -90 -1241 1242 0
-90 -94 -98 -1242 0
61 68 -79 1243 0
61 68 -79 -1243 0
2 3 38 1244 0
38 -51 -1244 1245 0
-51 -78 -1245 1246 0
-78 -81 94 -1246 0
9 13 -19 1247 0
-19 -43 -1247 1248 0
-43 90 -95 -1248 0
-4 -21 47 1249 0
47 -57 -1249 1250 0
-57 77 -1250 1251 0
77 79 -1251 1252 0
79 92 93 -1252 0
72 85 88 90 0
1 -20 -61 1253 0
-61 -84 -90 -1253 0
-9 -19 -30 1254 0
-30 73 -1254 1255 0
73 74 -80 -1255 0
32 70 96 1256 0
32 70 96 -1256 0
-5 32 -53 1257 0
-53 61 -1257 1258 0
61 83 89 -1258 0
-2 -25 -44 1259 0
-44 57 -98 -1259 0
-1 -12 -27 1260 0
-27 -30 -1260 1261 0
-30 -51 -1261 1262 0
-51 -63 -1262 1263 0
-63 87 -1263 1264 0
87 88 -99 -1264 0
1 29 61 1265 0
61 -66 -1265 1266 0
-66 73 100 -1266 0
9 -38 41 1267 0
41 -50 -1267 1268 0
-50 -53 -1268 1269 0
-53 -89 -1269 1270 0
-89 -94 100 -1270 0
3 32 -47 51 0
-7 16 -17 1271 0
-17 -20 -98 -1271 0
-22 32 85 1272 0
-22 32 85 -1272 0
-1 -8 -47 1273 0
-1 -8 -47 -1273 0
19 31 55 1274 0
55 -56 -1274 1275 0
-56 73 -1275 1276 0
73 74 -1276 1277 0
74 85 93 -1277 0
1 19 -25 1278 0
-25 -69 -1278 1279 0
-69 73 -1279 1280 0
73 -81 -1280 1281 0
-81 84 -85 -1281 0
4 -26 -30 1282 0
-30 -42 -85 -1282 0
3 66 -79 96 0
31 -62 -71 1283 0
31 -62 -71 -1283 0
13 -75 -77 83 0
39 40 -49 1284 0
-49 -72 -78 -1284 0
9 33 50 1285 0
50 60 -1285 1286 0
60 61 -1286 1287 0
61 -64 -1287 1288 0
-64 -74 -1288 1289 0
-74 89 -100 -1289 0
3 -42 45 1290 0
45 -51 54 -1290 0
9 -47 63 1291 0
9 -47 63 -1291 0
53 -60 69 1292 0
69 -76 100 -1292 0
-3 -20 38 1293 0
-3 -20 38 -1293 0
29 -33 -55 1294 0
-55 58 -1294 1295 0
58 64 -1295 1296 0
64 -71 -1296 1297 0
-71 -74 95 -1297 0
-7 10 -22 1298 0
-22 35 -1298 1299 0
35 -40 -1299 1300 0
-40 -56 -1300 1301 0
-56 59 -1301 1302 0
59 -62 -92 -1302 0
6 -28 -37 1303 0
-37 48 -1303 1304 0
48 -49 -67 -1304 0
-14 16 55 94 0
4 59 86 1305 0
4 59 86 -1305 0
-23 -49 1306 1307 0
-23 -49 1306 -1307 0
-23 -49 -1306 1307 0
-23 -49 -1306 -1307 0
-42 57 -94 1308 0
-42 57 -94 -1308 0
16 -22 -64 1309 0
16 -22 -64 -1309 0
9 -13 -32 1310 0
-32 -41 -1310 1311 0
-41 61 -1311 1312 0
61 -75 -87 -1312 0
-9 17 -55 1313 0
-55 -69 -1313 1314 0
-69 75 82 -1314 0
-3 16 41 1315 0
-3 16 41 -1315 0
-1 8 1316 1317 0
-1 8 1316 -1317 0
-1 8 -1316 1317 0
-1 8 -1316 -1317 0
16 26 -54 1318 0
-54 70 -1318 1319 0
70 85 -91 -1319 0
33 -34 -56 80 0
-46 -57 -62 1320 0
-46 -57 -62 -1320 0
-40 -95 1321 1322 0
-40 -95 1321 -1322 0
-40 -95 -1321 1322 0
-40 -95 -1321 -1322 0
36 -49 -64 1323 0
36 -49 -64 -1323 0
10 12 -20 1324 0
-20 -38 -1324 1325 0
-38 41 -1325 1326 0
41 -51 -1326 1327 0
-51 66 84 -1327 0
11 -48 -60 1328 0
-60 -66 -1328 1329 0
-66 89 94 -1329 0
51 91 96 1330 0
51 91 96 -1330 0
9 -29 43 1331 0
43 -45 -65 -1331 0
51 -52 64 1332 0
51 -52 64 -1332 0
17 33 35 1333 0
35 -57 -1333 1334 0
-57 60 -1334 1335 0
60 62 -83 -1335 0
40 -45 73 1336 0
73 84 -1336 1337 0
84 -86 -90 -1337 0
-18 -57 61 1338 0
61 -78 91 -1338 0
-3 -15 35 1339 0
35 -45 -83 -1339 0
-34 -43 49 1340 0
-34 -43 49 -1340 0
-2 6 -19 1341 0
-19 43 -1341 1342 0
43 45 98 -1342 0
-3 53 66 1343 0
66 -86 -95 -1343 0
-28 -57 -68 1344 0
-68 -85 88 -1344 0
-4 7 -46 -78 0
-15 -26 37 1345 0
37 -79 99 -1345 0
-25 30 -43 1346 0
-43 61 -1346 1347 0
61 -71 -1347 1348 0
-71 75 -1348 1349 0
75 78 -1349 1350 0
78 -80 -89 -1350 0
8 64 69 76 0
1 8 9 70 0
-3 6 -19 1351 0
-19 -36 -1351 1352 0
-36 -73 83 -1352 0
52 60 63 70 0
15 34 -40 1353 0
-40 -57 -1353 1354 0
-57 -59 -98 -1354 0
43 -60 -65 1355 0
-65 68 -1355 1356 0
68 82 -93 -1356 0
8 -33 51 1357 0
51 54 -1357 1358 0
54 60 -76 -1358 0
4 -38 -67 -93 0
9 -23 58 1359 0
58 -60 93 -1359 0
6 46 67 68 0
7 48 63 1360 0
63 75 97 -1360 0
62 -65 1361 1362 0
62 -65 1361 -1362 0
62 -65 -1361 1362 0
62 -65 -1361 -1362 0
30 -47 -91 -95 0
3 -26 -30 1363 0
-30 -42 99 -1363 0
-21 23 -24 1364 0
-24 34 -1364 1365 0
34 -38 -1365 1366 0
-38 -41 -1366 1367 0
-41 45 -81 -1367 0
-5 44 68 1368 0
68 71 -1368 1369 0
71 74 -77 -1369 0
2 -7 83 -94 0
-11 16 20 1370 0
20 -32 -1370 1371 0
-32 34 -1371 1372 0
34 38 84 -1372 0
-17 39 43 1373 0
43 55 -72 -1373 0
-4 -56 -75 92 0
-36 85 95 1374 0
-36 85 95 -1374 0
20 81 85 -88 0
11 17 20 1375 0
20 22 -1375 1376 0
22 -36 -52 -1376 0
-14 -19 -32 1377 0
-32 85 -100 -1377 0
1 -4 -17 1378 0
-17 -59 -1378 1379 0
-59 -64 -1379 1380 0
-64 -71 -90 -1380 0
-11 -34 96 1381 0
-11 -34 96 -1381 0
